<instance format="XCSP3" type="COP">
  <variables>
    <array id="x" size="[149]"> 0..148 </array>
  </variables>
  <constraints>
    <group>
      <intension> ne(%0,%1) </intension>
      <args> x[0] x[1] </args>
      <args> x[0] x[3] </args>
      <args> x[0] x[10] </args>
      <args> x[0] x[12] </args>
      <args> x[0] x[38] </args>
      <args> x[0] x[40] </args>
      <args> x[0] x[47] </args>
      <args> x[0] x[49] </args>
      <args> x[1] x[2] </args>
      <args> x[1] x[9] </args>
      <args> x[1] x[11] </args>
      <args> x[1] x[37] </args>
      <args> x[1] x[39] </args>
      <args> x[1] x[46] </args>
      <args> x[1] x[48] </args>
      <args> x[2] x[5] </args>
      <args> x[2] x[10] </args>
      <args> x[2] x[14] </args>
      <args> x[2] x[38] </args>
      <args> x[2] x[42] </args>
      <args> x[2] x[47] </args>
      <args> x[2] x[51] </args>
      <args> x[3] x[4] </args>
      <args> x[3] x[9] </args>
      <args> x[3] x[13] </args>
      <args> x[3] x[37] </args>
      <args> x[3] x[41] </args>
      <args> x[3] x[46] </args>
      <args> x[3] x[50] </args>
      <args> x[4] x[7] </args>
      <args> x[4] x[12] </args>
      <args> x[4] x[16] </args>
      <args> x[4] x[40] </args>
      <args> x[4] x[44] </args>
      <args> x[4] x[49] </args>
      <args> x[4] x[53] </args>
      <args> x[5] x[6] </args>
      <args> x[5] x[11] </args>
      <args> x[5] x[15] </args>
      <args> x[5] x[39] </args>
      <args> x[5] x[43] </args>
      <args> x[5] x[48] </args>
      <args> x[5] x[52] </args>
      <args> x[6] x[8] </args>
      <args> x[6] x[14] </args>
      <args> x[6] x[17] </args>
      <args> x[6] x[42] </args>
      <args> x[6] x[45] </args>
      <args> x[6] x[51] </args>
      <args> x[6] x[54] </args>
      <args> x[7] x[8] </args>
      <args> x[7] x[13] </args>
      <args> x[7] x[17] </args>
      <args> x[7] x[41] </args>
      <args> x[7] x[45] </args>
      <args> x[7] x[50] </args>
      <args> x[7] x[54] </args>
      <args> x[8] x[15] </args>
      <args> x[8] x[16] </args>
      <args> x[8] x[43] </args>
      <args> x[8] x[44] </args>
      <args> x[8] x[52] </args>
      <args> x[8] x[53] </args>
      <args> x[9] x[19] </args>
      <args> x[9] x[21] </args>
      <args> x[9] x[38] </args>
      <args> x[9] x[40] </args>
      <args> x[9] x[56] </args>
      <args> x[9] x[58] </args>
      <args> x[10] x[18] </args>
      <args> x[10] x[20] </args>
      <args> x[10] x[37] </args>
      <args> x[10] x[39] </args>
      <args> x[10] x[55] </args>
      <args> x[10] x[57] </args>
      <args> x[11] x[19] </args>
      <args> x[11] x[23] </args>
      <args> x[11] x[38] </args>
      <args> x[11] x[42] </args>
      <args> x[11] x[56] </args>
      <args> x[11] x[60] </args>
      <args> x[12] x[18] </args>
      <args> x[12] x[22] </args>
      <args> x[12] x[37] </args>
      <args> x[12] x[41] </args>
      <args> x[12] x[55] </args>
      <args> x[12] x[59] </args>
      <args> x[13] x[21] </args>
      <args> x[13] x[25] </args>
      <args> x[13] x[40] </args>
      <args> x[13] x[44] </args>
      <args> x[13] x[58] </args>
      <args> x[13] x[62] </args>
      <args> x[14] x[20] </args>
      <args> x[14] x[24] </args>
      <args> x[14] x[39] </args>
      <args> x[14] x[43] </args>
      <args> x[14] x[57] </args>
      <args> x[14] x[61] </args>
      <args> x[15] x[23] </args>
      <args> x[15] x[26] </args>
      <args> x[15] x[42] </args>
      <args> x[15] x[45] </args>
      <args> x[15] x[60] </args>
      <args> x[15] x[63] </args>
      <args> x[16] x[22] </args>
      <args> x[16] x[26] </args>
      <args> x[16] x[41] </args>
      <args> x[16] x[45] </args>
      <args> x[16] x[59] </args>
      <args> x[16] x[63] </args>
      <args> x[17] x[24] </args>
      <args> x[17] x[25] </args>
      <args> x[17] x[43] </args>
      <args> x[17] x[44] </args>
      <args> x[17] x[61] </args>
      <args> x[17] x[62] </args>
      <args> x[18] x[28] </args>
      <args> x[18] x[30] </args>
      <args> x[18] x[47] </args>
      <args> x[18] x[49] </args>
      <args> x[18] x[65] </args>
      <args> x[18] x[67] </args>
      <args> x[19] x[27] </args>
      <args> x[19] x[29] </args>
      <args> x[19] x[46] </args>
      <args> x[19] x[48] </args>
      <args> x[19] x[64] </args>
      <args> x[19] x[66] </args>
      <args> x[20] x[28] </args>
      <args> x[20] x[32] </args>
      <args> x[20] x[47] </args>
      <args> x[20] x[51] </args>
      <args> x[20] x[65] </args>
      <args> x[20] x[69] </args>
      <args> x[21] x[27] </args>
      <args> x[21] x[31] </args>
      <args> x[21] x[46] </args>
      <args> x[21] x[50] </args>
      <args> x[21] x[64] </args>
      <args> x[21] x[68] </args>
      <args> x[22] x[30] </args>
      <args> x[22] x[34] </args>
      <args> x[22] x[49] </args>
      <args> x[22] x[53] </args>
      <args> x[22] x[67] </args>
      <args> x[22] x[71] </args>
      <args> x[23] x[29] </args>
      <args> x[23] x[33] </args>
      <args> x[23] x[48] </args>
      <args> x[23] x[52] </args>
      <args> x[23] x[66] </args>
      <args> x[23] x[70] </args>
      <args> x[24] x[32] </args>
      <args> x[24] x[35] </args>
      <args> x[24] x[51] </args>
      <args> x[24] x[54] </args>
      <args> x[24] x[69] </args>
      <args> x[24] x[72] </args>
      <args> x[25] x[31] </args>
      <args> x[25] x[35] </args>
      <args> x[25] x[50] </args>
      <args> x[25] x[54] </args>
      <args> x[25] x[68] </args>
      <args> x[25] x[72] </args>
      <args> x[26] x[33] </args>
      <args> x[26] x[34] </args>
      <args> x[26] x[52] </args>
      <args> x[26] x[53] </args>
      <args> x[26] x[70] </args>
      <args> x[26] x[71] </args>
      <args> x[27] x[36] </args>
      <args> x[27] x[56] </args>
      <args> x[27] x[58] </args>
      <args> x[27] x[73] </args>
      <args> x[28] x[36] </args>
      <args> x[28] x[55] </args>
      <args> x[28] x[57] </args>
      <args> x[28] x[73] </args>
      <args> x[29] x[36] </args>
      <args> x[29] x[56] </args>
      <args> x[29] x[60] </args>
      <args> x[29] x[73] </args>
      <args> x[30] x[36] </args>
      <args> x[30] x[55] </args>
      <args> x[30] x[59] </args>
      <args> x[30] x[73] </args>
      <args> x[31] x[36] </args>
      <args> x[31] x[58] </args>
      <args> x[31] x[62] </args>
      <args> x[31] x[73] </args>
      <args> x[32] x[36] </args>
      <args> x[32] x[57] </args>
      <args> x[32] x[61] </args>
      <args> x[32] x[73] </args>
      <args> x[33] x[36] </args>
      <args> x[33] x[60] </args>
      <args> x[33] x[63] </args>
      <args> x[33] x[73] </args>
      <args> x[34] x[36] </args>
      <args> x[34] x[59] </args>
      <args> x[34] x[63] </args>
      <args> x[34] x[73] </args>
      <args> x[35] x[36] </args>
      <args> x[35] x[61] </args>
      <args> x[35] x[62] </args>
      <args> x[35] x[73] </args>
      <args> x[36] x[64] </args>
      <args> x[36] x[65] </args>
      <args> x[36] x[66] </args>
      <args> x[36] x[67] </args>
      <args> x[36] x[68] </args>
      <args> x[36] x[69] </args>
      <args> x[36] x[70] </args>
      <args> x[36] x[71] </args>
      <args> x[36] x[72] </args>
      <args> x[37] x[75] </args>
      <args> x[37] x[77] </args>
      <args> x[37] x[84] </args>
      <args> x[37] x[86] </args>
      <args> x[38] x[74] </args>
      <args> x[38] x[76] </args>
      <args> x[38] x[83] </args>
      <args> x[38] x[85] </args>
      <args> x[39] x[75] </args>
      <args> x[39] x[79] </args>
      <args> x[39] x[84] </args>
      <args> x[39] x[88] </args>
      <args> x[40] x[74] </args>
      <args> x[40] x[78] </args>
      <args> x[40] x[83] </args>
      <args> x[40] x[87] </args>
      <args> x[41] x[77] </args>
      <args> x[41] x[81] </args>
      <args> x[41] x[86] </args>
      <args> x[41] x[90] </args>
      <args> x[42] x[76] </args>
      <args> x[42] x[80] </args>
      <args> x[42] x[85] </args>
      <args> x[42] x[89] </args>
      <args> x[43] x[79] </args>
      <args> x[43] x[82] </args>
      <args> x[43] x[88] </args>
      <args> x[43] x[91] </args>
      <args> x[44] x[78] </args>
      <args> x[44] x[82] </args>
      <args> x[44] x[87] </args>
      <args> x[44] x[91] </args>
      <args> x[45] x[80] </args>
      <args> x[45] x[81] </args>
      <args> x[45] x[89] </args>
      <args> x[45] x[90] </args>
      <args> x[46] x[75] </args>
      <args> x[46] x[77] </args>
      <args> x[46] x[93] </args>
      <args> x[46] x[95] </args>
      <args> x[47] x[74] </args>
      <args> x[47] x[76] </args>
      <args> x[47] x[92] </args>
      <args> x[47] x[94] </args>
      <args> x[48] x[75] </args>
      <args> x[48] x[79] </args>
      <args> x[48] x[93] </args>
      <args> x[48] x[97] </args>
      <args> x[49] x[74] </args>
      <args> x[49] x[78] </args>
      <args> x[49] x[92] </args>
      <args> x[49] x[96] </args>
      <args> x[50] x[77] </args>
      <args> x[50] x[81] </args>
      <args> x[50] x[95] </args>
      <args> x[50] x[99] </args>
      <args> x[51] x[76] </args>
      <args> x[51] x[80] </args>
      <args> x[51] x[94] </args>
      <args> x[51] x[98] </args>
      <args> x[52] x[79] </args>
      <args> x[52] x[82] </args>
      <args> x[52] x[97] </args>
      <args> x[52] x[100] </args>
      <args> x[53] x[78] </args>
      <args> x[53] x[82] </args>
      <args> x[53] x[96] </args>
      <args> x[53] x[100] </args>
      <args> x[54] x[80] </args>
      <args> x[54] x[81] </args>
      <args> x[54] x[98] </args>
      <args> x[54] x[99] </args>
      <args> x[55] x[84] </args>
      <args> x[55] x[86] </args>
      <args> x[55] x[102] </args>
      <args> x[55] x[104] </args>
      <args> x[56] x[83] </args>
      <args> x[56] x[85] </args>
      <args> x[56] x[101] </args>
      <args> x[56] x[103] </args>
      <args> x[57] x[84] </args>
      <args> x[57] x[88] </args>
      <args> x[57] x[102] </args>
      <args> x[57] x[106] </args>
      <args> x[58] x[83] </args>
      <args> x[58] x[87] </args>
      <args> x[58] x[101] </args>
      <args> x[58] x[105] </args>
      <args> x[59] x[86] </args>
      <args> x[59] x[90] </args>
      <args> x[59] x[104] </args>
      <args> x[59] x[108] </args>
      <args> x[60] x[85] </args>
      <args> x[60] x[89] </args>
      <args> x[60] x[103] </args>
      <args> x[60] x[107] </args>
      <args> x[61] x[88] </args>
      <args> x[61] x[91] </args>
      <args> x[61] x[106] </args>
      <args> x[61] x[109] </args>
      <args> x[62] x[87] </args>
      <args> x[62] x[91] </args>
      <args> x[62] x[105] </args>
      <args> x[62] x[109] </args>
      <args> x[63] x[89] </args>
      <args> x[63] x[90] </args>
      <args> x[63] x[107] </args>
      <args> x[63] x[108] </args>
      <args> x[64] x[93] </args>
      <args> x[64] x[95] </args>
      <args> x[64] x[110] </args>
      <args> x[65] x[92] </args>
      <args> x[65] x[94] </args>
      <args> x[65] x[110] </args>
      <args> x[66] x[93] </args>
      <args> x[66] x[97] </args>
      <args> x[66] x[110] </args>
      <args> x[67] x[92] </args>
      <args> x[67] x[96] </args>
      <args> x[67] x[110] </args>
      <args> x[68] x[95] </args>
      <args> x[68] x[99] </args>
      <args> x[68] x[110] </args>
      <args> x[69] x[94] </args>
      <args> x[69] x[98] </args>
      <args> x[69] x[110] </args>
      <args> x[70] x[97] </args>
      <args> x[70] x[100] </args>
      <args> x[70] x[110] </args>
      <args> x[71] x[96] </args>
      <args> x[71] x[100] </args>
      <args> x[71] x[110] </args>
      <args> x[72] x[98] </args>
      <args> x[72] x[99] </args>
      <args> x[72] x[110] </args>
      <args> x[73] x[101] </args>
      <args> x[73] x[102] </args>
      <args> x[73] x[103] </args>
      <args> x[73] x[104] </args>
      <args> x[73] x[105] </args>
      <args> x[73] x[106] </args>
      <args> x[73] x[107] </args>
      <args> x[73] x[108] </args>
      <args> x[73] x[109] </args>
      <args> x[74] x[112] </args>
      <args> x[74] x[114] </args>
      <args> x[74] x[121] </args>
      <args> x[74] x[123] </args>
      <args> x[75] x[111] </args>
      <args> x[75] x[113] </args>
      <args> x[75] x[120] </args>
      <args> x[75] x[122] </args>
      <args> x[76] x[112] </args>
      <args> x[76] x[116] </args>
      <args> x[76] x[121] </args>
      <args> x[76] x[125] </args>
      <args> x[77] x[111] </args>
      <args> x[77] x[115] </args>
      <args> x[77] x[120] </args>
      <args> x[77] x[124] </args>
      <args> x[78] x[114] </args>
      <args> x[78] x[118] </args>
      <args> x[78] x[123] </args>
      <args> x[78] x[127] </args>
      <args> x[79] x[113] </args>
      <args> x[79] x[117] </args>
      <args> x[79] x[122] </args>
      <args> x[79] x[126] </args>
      <args> x[80] x[116] </args>
      <args> x[80] x[119] </args>
      <args> x[80] x[125] </args>
      <args> x[80] x[128] </args>
      <args> x[81] x[115] </args>
      <args> x[81] x[119] </args>
      <args> x[81] x[124] </args>
      <args> x[81] x[128] </args>
      <args> x[82] x[117] </args>
      <args> x[82] x[118] </args>
      <args> x[82] x[126] </args>
      <args> x[82] x[127] </args>
      <args> x[83] x[112] </args>
      <args> x[83] x[114] </args>
      <args> x[83] x[130] </args>
      <args> x[83] x[132] </args>
      <args> x[84] x[111] </args>
      <args> x[84] x[113] </args>
      <args> x[84] x[129] </args>
      <args> x[84] x[131] </args>
      <args> x[85] x[112] </args>
      <args> x[85] x[116] </args>
      <args> x[85] x[130] </args>
      <args> x[85] x[134] </args>
      <args> x[86] x[111] </args>
      <args> x[86] x[115] </args>
      <args> x[86] x[129] </args>
      <args> x[86] x[133] </args>
      <args> x[87] x[114] </args>
      <args> x[87] x[118] </args>
      <args> x[87] x[132] </args>
      <args> x[87] x[136] </args>
      <args> x[88] x[113] </args>
      <args> x[88] x[117] </args>
      <args> x[88] x[131] </args>
      <args> x[88] x[135] </args>
      <args> x[89] x[116] </args>
      <args> x[89] x[119] </args>
      <args> x[89] x[134] </args>
      <args> x[89] x[137] </args>
      <args> x[90] x[115] </args>
      <args> x[90] x[119] </args>
      <args> x[90] x[133] </args>
      <args> x[90] x[137] </args>
      <args> x[91] x[117] </args>
      <args> x[91] x[118] </args>
      <args> x[91] x[135] </args>
      <args> x[91] x[136] </args>
      <args> x[92] x[121] </args>
      <args> x[92] x[123] </args>
      <args> x[92] x[139] </args>
      <args> x[92] x[141] </args>
      <args> x[93] x[120] </args>
      <args> x[93] x[122] </args>
      <args> x[93] x[138] </args>
      <args> x[93] x[140] </args>
      <args> x[94] x[121] </args>
      <args> x[94] x[125] </args>
      <args> x[94] x[139] </args>
      <args> x[94] x[143] </args>
      <args> x[95] x[120] </args>
      <args> x[95] x[124] </args>
      <args> x[95] x[138] </args>
      <args> x[95] x[142] </args>
      <args> x[96] x[123] </args>
      <args> x[96] x[127] </args>
      <args> x[96] x[141] </args>
      <args> x[96] x[145] </args>
      <args> x[97] x[122] </args>
      <args> x[97] x[126] </args>
      <args> x[97] x[140] </args>
      <args> x[97] x[144] </args>
      <args> x[98] x[125] </args>
      <args> x[98] x[128] </args>
      <args> x[98] x[143] </args>
      <args> x[98] x[146] </args>
      <args> x[99] x[124] </args>
      <args> x[99] x[128] </args>
      <args> x[99] x[142] </args>
      <args> x[99] x[146] </args>
      <args> x[100] x[126] </args>
      <args> x[100] x[127] </args>
      <args> x[100] x[144] </args>
      <args> x[100] x[145] </args>
      <args> x[101] x[130] </args>
      <args> x[101] x[132] </args>
      <args> x[101] x[147] </args>
      <args> x[102] x[129] </args>
      <args> x[102] x[131] </args>
      <args> x[102] x[147] </args>
      <args> x[103] x[130] </args>
      <args> x[103] x[134] </args>
      <args> x[103] x[147] </args>
      <args> x[104] x[129] </args>
      <args> x[104] x[133] </args>
      <args> x[104] x[147] </args>
      <args> x[105] x[132] </args>
      <args> x[105] x[136] </args>
      <args> x[105] x[147] </args>
      <args> x[106] x[131] </args>
      <args> x[106] x[135] </args>
      <args> x[106] x[147] </args>
      <args> x[107] x[134] </args>
      <args> x[107] x[137] </args>
      <args> x[107] x[147] </args>
      <args> x[108] x[133] </args>
      <args> x[108] x[137] </args>
      <args> x[108] x[147] </args>
      <args> x[109] x[135] </args>
      <args> x[109] x[136] </args>
      <args> x[109] x[147] </args>
      <args> x[110] x[138] </args>
      <args> x[110] x[139] </args>
      <args> x[110] x[140] </args>
      <args> x[110] x[141] </args>
      <args> x[110] x[142] </args>
      <args> x[110] x[143] </args>
      <args> x[110] x[144] </args>
      <args> x[110] x[145] </args>
      <args> x[110] x[146] </args>
      <args> x[111] x[148] </args>
      <args> x[112] x[148] </args>
      <args> x[113] x[148] </args>
      <args> x[114] x[148] </args>
      <args> x[115] x[148] </args>
      <args> x[116] x[148] </args>
      <args> x[117] x[148] </args>
      <args> x[118] x[148] </args>
      <args> x[119] x[148] </args>
      <args> x[120] x[148] </args>
      <args> x[121] x[148] </args>
      <args> x[122] x[148] </args>
      <args> x[123] x[148] </args>
      <args> x[124] x[148] </args>
      <args> x[125] x[148] </args>
      <args> x[126] x[148] </args>
      <args> x[127] x[148] </args>
      <args> x[128] x[148] </args>
      <args> x[129] x[148] </args>
      <args> x[130] x[148] </args>
      <args> x[131] x[148] </args>
      <args> x[132] x[148] </args>
      <args> x[133] x[148] </args>
      <args> x[134] x[148] </args>
      <args> x[135] x[148] </args>
      <args> x[136] x[148] </args>
      <args> x[137] x[148] </args>
      <args> x[138] x[148] </args>
      <args> x[139] x[148] </args>
      <args> x[140] x[148] </args>
      <args> x[141] x[148] </args>
      <args> x[142] x[148] </args>
      <args> x[143] x[148] </args>
      <args> x[144] x[148] </args>
      <args> x[145] x[148] </args>
      <args> x[146] x[148] </args>
      <args> x[147] x[148] </args>
    </group>
  </constraints>
  <objectives>
    <minimize type="maximum"> x[] </minimize>
  </objectives>
</instance>
